52
48 31 50
31 21 97
21 30 104
30 17 80
17 2 135
2 44 220
44 18 75
18 40 92
40 7 64
7 8 183
8 9 83
9 32 501
32 42 365
42 14 242
14 39 90
39 36 41
36 37 43
37 47 49
47 23 16
23 4 32
4 5 35
5 3 70
3 50 397
50 10 285
10 51 399
51 13 319
13 12 206
12 46 324
46 25 186
25 26 126
26 27 110
27 11 182
11 24 245
24 45 173
45 15 156
15 28 201
28 52 645
52 1 150
1 6 45
6 41 76
41 16 408
16 20 253
20 29 242
29 22 179
22 19 94
19 49 35
49 43 175
43 33 80
33 34 21
34 35 15
35 38 43
38 48 115

